; benchmark generated from python API
(set-info :status unknown)
(declare-fun DISJ_W_S1_R_S1 () Bool)
(declare-fun R_S1_V3 () Bool)
(declare-fun W_S1_V4 () Bool)
(declare-fun W_S1_V2 () Bool)
(declare-fun W_S1_V6 () Bool)
(declare-fun W_S1_V3 () Bool)
(declare-fun W_S1_V1 () Bool)
(declare-fun R_S1_V6 () Bool)
(declare-fun R_S1_V4 () Bool)
(declare-fun R_S1_V5 () Bool)
(declare-fun R_S1_V2 () Bool)
(declare-fun R_S1_V1 () Bool)
(declare-fun R_E2_V1 () Bool)
(declare-fun R_E1_V6 () Bool)
(declare-fun R_E1_V4 () Bool)
(declare-fun R_E1_V5 () Bool)
(declare-fun R_E1_V2 () Bool)
(declare-fun DISJ_W_S1_R_E1 () Bool)
(declare-fun R_E2_V6 () Bool)
(declare-fun R_E2_V4 () Bool)
(declare-fun R_E2_V5 () Bool)
(declare-fun R_E2_V2 () Bool)
(declare-fun DISJ_W_S1_R_E2 () Bool)
(declare-fun W_S1_V5 () Bool)
(declare-fun R_E1_V3 () Bool)
(declare-fun R_E1_V1 () Bool)
(declare-fun R_E2_V3 () Bool)
(assert
 (let (($x167 (not (and (not R_S1_V3) DISJ_W_S1_R_S1))))
 (let (($x1188 (not (and (not W_S1_V4) DISJ_W_S1_R_S1))))
 (let (($x1531 (not (and (not W_S1_V2) DISJ_W_S1_R_S1))))
 (let (($x2635 (forall ((V2_0 Int) )(forall ((V5_0 Int) )(forall ((V4_0 Int) )(forall ((V6_0 Int) )(forall ((MW_S1_V1 Bool) )(forall ((MW_S1_V3 Bool) )(forall ((MW_S1_V2 Bool) )(forall ((MW_S1_V5 Bool) )(forall ((MW_S1_V4 Bool) )(forall ((MW_S1_V6 Bool) )(forall ((S1_V1_!5249 Int) )(forall ((S1_V1_!5255 Int) )(forall ((S1_V1_!5264 Int) )(forall ((S1_V1_!5270 Int) )(forall ((S1_V3_!5250 Int) )(forall ((S1_V3_!5256 Int) )(forall ((S1_V3_!5265 Int) )(forall ((S1_V3_!5271 Int) )(forall ((S1_V2_!5251 Int) )(forall ((S1_V2_!5257 Int) )(forall ((S1_V2_!5266 Int) )(forall ((S1_V2_!5272 Int) )(forall ((E1_!5246 Int) )(forall ((E1_!5261 Int) )(forall ((E1_!5263 Int) )(forall ((S1_V5_!5252 Int) )(forall ((S1_V5_!5258 Int) )(forall ((S1_V5_!5267 Int) )(forall ((S1_V5_!5273 Int) )(forall ((E2_!5247 Int) )(forall ((E2_!5248 Int) )(forall ((E2_!5262 Int) )(forall ((S1_V4_!5253 Int) )(forall ((S1_V4_!5259 Int) )(forall ((S1_V4_!5268 Int) )(forall ((S1_V4_!5274 Int) )(forall ((S1_V6_!5254 Int) )(forall ((S1_V6_!5260 Int) )(forall ((S1_V6_!5269 Int) )(forall ((S1_V6_!5275 Int) )(let ((?x2257 (ite MW_S1_V3 S1_V3_!5271 E2_!5262)))
 (let ((?x2782 (ite MW_S1_V3 S1_V3_!5250 E2_!5248)))
 (let ((?x5720 (+ 1 ?x2782)))
 (let ((?x135 (ite MW_S1_V3 S1_V3_!5256 ?x5720)))
 (let ((?x2259 (ite MW_S1_V1 S1_V1_!5264 E1_!5263)))
 (let ((?x387 (+ 1 ?x2259)))
 (let ((?x584 (ite MW_S1_V1 S1_V1_!5270 ?x387)))
 (let ((?x1491 (ite MW_S1_V1 S1_V1_!5255 E1_!5246)))
 (let (($x3186 (and (= ?x1491 ?x584) (= ?x135 ?x2257) (= (ite MW_S1_V2 S1_V2_!5257 V2_0) (ite MW_S1_V2 S1_V2_!5272 V2_0)) (= (ite MW_S1_V5 S1_V5_!5258 V5_0) (ite MW_S1_V5 S1_V5_!5273 V5_0)) (= (ite MW_S1_V4 S1_V4_!5259 V4_0) (ite MW_S1_V4 S1_V4_!5274 V4_0)) (= (ite MW_S1_V6 S1_V6_!5260 V6_0) (ite MW_S1_V6 S1_V6_!5275 V6_0)))))
 (let (($x2668 (and (not (<= V4_0 E2_!5247)) (not (<= V2_0 E1_!5246)) (not (<= V4_0 E2_!5248)) (not (<= (ite MW_S1_V4 S1_V4_!5253 V4_0) ?x5720)) (>= ?x135 (+ (- 1) (ite MW_S1_V4 S1_V4_!5259 V4_0))) (>= ?x1491 (+ (- 1) (ite MW_S1_V2 S1_V2_!5257 V2_0))) (not (<= V2_0 E1_!5261)) (not (<= V4_0 E2_!5262)) (not (<= V2_0 E1_!5263)) (not (<= (ite MW_S1_V2 S1_V2_!5266 V2_0) ?x387)) (>= ?x584 (+ (- 1) (ite MW_S1_V2 S1_V2_!5272 V2_0))) (>= ?x2257 (+ (- 1) (ite MW_S1_V4 S1_V4_!5274 V4_0))))))
 (let (($x5317 (= S1_V6_!5269 S1_V6_!5275)))
 (let (($x790 (not R_S1_V6)))
 (let (($x1205 (or $x790 (= V6_0 (ite MW_S1_V6 S1_V6_!5269 V6_0)))))
 (let (($x3130 (not R_S1_V4)))
 (let (($x2657 (or $x3130 (= V4_0 (ite MW_S1_V4 S1_V4_!5268 V4_0)))))
 (let (($x5866 (not R_S1_V5)))
 (let (($x1593 (or $x5866 (= V5_0 (ite MW_S1_V5 S1_V5_!5267 V5_0)))))
 (let (($x961 (not R_S1_V2)))
 (let (($x5812 (or $x961 (= V2_0 (ite MW_S1_V2 S1_V2_!5266 V2_0)))))
 (let (($x3305 (and (or (not R_S1_V1) (= E1_!5263 ?x387)) (or (not R_S1_V3) (= E2_!5262 (ite MW_S1_V3 S1_V3_!5265 E2_!5262))) $x5812 $x1593 $x2657 $x1205)))
 (let (($x4147 (not $x3305)))
 (let (($x1662 (= S1_V6_!5260 S1_V6_!5275)))
 (let (($x5310 (and (or (not R_S1_V1) (= (ite MW_S1_V1 S1_V1_!5249 E1_!5246) ?x387)) (or (not R_S1_V3) (= ?x2782 (+ (- 1) (ite MW_S1_V3 S1_V3_!5265 E2_!5262)))) (or $x961 (= (ite MW_S1_V2 S1_V2_!5251 V2_0) (ite MW_S1_V2 S1_V2_!5266 V2_0))) (or $x5866 (= (ite MW_S1_V5 S1_V5_!5252 V5_0) (ite MW_S1_V5 S1_V5_!5267 V5_0))) (or $x3130 (= (ite MW_S1_V4 S1_V4_!5253 V4_0) (ite MW_S1_V4 S1_V4_!5268 V4_0))) (or $x790 (= (ite MW_S1_V6 S1_V6_!5254 V6_0) (ite MW_S1_V6 S1_V6_!5269 V6_0))))))
 (let (($x1021 (not $x5310)))
 (let (($x43 (= S1_V6_!5260 S1_V6_!5269)))
 (let (($x5474 (or $x790 (= (ite MW_S1_V6 S1_V6_!5254 V6_0) V6_0))))
 (let (($x5949 (or $x3130 (= (ite MW_S1_V4 S1_V4_!5253 V4_0) V4_0))))
 (let (($x5877 (or $x5866 (= (ite MW_S1_V5 S1_V5_!5252 V5_0) V5_0))))
 (let (($x2409 (or $x961 (= (ite MW_S1_V2 S1_V2_!5251 V2_0) V2_0))))
 (let (($x3725 (and (or (not R_S1_V1) (= (ite MW_S1_V1 S1_V1_!5249 E1_!5246) E1_!5263)) (or (not R_S1_V3) (= ?x2782 (+ (- 1) E2_!5262))) $x2409 $x5877 $x5949 $x5474)))
 (let (($x5067 (not $x3725)))
 (let (($x227 (and (or (not R_S1_V1) (= (ite MW_S1_V1 S1_V1_!5249 E1_!5246) E1_!5246)) (or (not R_S1_V3) (= ?x2782 (+ (- 1) E2_!5248))) $x2409 $x5877 $x5949 $x5474)))
 (let (($x5753 (not $x227)))
 (let (($x2753 (and (or (not R_S1_V1) (= E1_!5246 ?x387)) (or (not R_S1_V3) (= E2_!5248 (ite MW_S1_V3 S1_V3_!5265 E2_!5262))) $x5812 $x1593 $x2657 $x1205)))
 (let (($x6049 (not $x2753)))
 (let (($x1875 (and (or (not R_S1_V1) (= E1_!5246 E1_!5263)) (or (not R_S1_V3) (= E2_!5248 E2_!5262)))))
 (let (($x1039 (not $x1875)))
 (let (($x3459 (= S1_V4_!5274 S1_V4_!5268)))
 (let (($x2432 (or $x790 (= (ite MW_S1_V6 S1_V6_!5269 V6_0) V6_0))))
 (let (($x1963 (or $x3130 (= (ite MW_S1_V4 S1_V4_!5268 V4_0) V4_0))))
 (let (($x3289 (or $x5866 (= (ite MW_S1_V5 S1_V5_!5267 V5_0) V5_0))))
 (let (($x1394 (or $x961 (= (ite MW_S1_V2 S1_V2_!5266 V2_0) V2_0))))
 (let (($x2191 (and (or (not R_S1_V1) (= ?x2259 (+ (- 1) E1_!5263))) (or (not R_S1_V3) (= (ite MW_S1_V3 S1_V3_!5265 E2_!5262) E2_!5262)) $x1394 $x3289 $x1963 $x2432)))
 (let (($x4577 (not $x2191)))
 (let (($x2366 (and (or (not R_S1_V1) (= ?x2259 (+ (- 1) (ite MW_S1_V1 S1_V1_!5249 E1_!5246)))) (or (not R_S1_V3) (= (ite MW_S1_V3 S1_V3_!5265 E2_!5262) ?x5720)) (or $x961 (= (ite MW_S1_V2 S1_V2_!5266 V2_0) (ite MW_S1_V2 S1_V2_!5251 V2_0))) (or $x5866 (= (ite MW_S1_V5 S1_V5_!5267 V5_0) (ite MW_S1_V5 S1_V5_!5252 V5_0))) (or $x3130 (= (ite MW_S1_V4 S1_V4_!5268 V4_0) (ite MW_S1_V4 S1_V4_!5253 V4_0))) (or $x790 (= (ite MW_S1_V6 S1_V6_!5269 V6_0) (ite MW_S1_V6 S1_V6_!5254 V6_0))))))
 (let (($x2932 (not $x2366)))
 (let (($x3975 (and (or (not R_S1_V1) (= ?x2259 (+ (- 1) E1_!5246))) (or (not R_S1_V3) (= (ite MW_S1_V3 S1_V3_!5265 E2_!5262) E2_!5248)) $x1394 $x3289 $x1963 $x2432)))
 (let (($x2053 (not $x3975)))
 (let (($x5070 (and (or (not R_S1_V1) (= E1_!5246 (ite MW_S1_V1 S1_V1_!5249 E1_!5246))) (or (not R_S1_V3) (= E2_!5248 ?x5720)) (or $x961 (= V2_0 (ite MW_S1_V2 S1_V2_!5251 V2_0))) (or $x5866 (= V5_0 (ite MW_S1_V5 S1_V5_!5252 V5_0))) (or $x3130 (= V4_0 (ite MW_S1_V4 S1_V4_!5253 V4_0))) (or $x790 (= V6_0 (ite MW_S1_V6 S1_V6_!5254 V6_0))))))
 (let (($x1194 (not $x5070)))
 (let (($x4668 (and (or (not R_S1_V1) (= E1_!5263 E1_!5246)) (or (not R_S1_V3) (= E2_!5262 E2_!5248)))))
 (let (($x3221 (= E1_!5263 E1_!5261)))
 (let (($x1718 (= E1_!5263 E1_!5246)))
 (let (($x2726 (= E1_!5246 E1_!5261)))
 (let (($x30 (and (or $x1194 (= S1_V1_!5249 S1_V1_!5255)) (or $x1039 (= S1_V1_!5249 S1_V1_!5264)) (or $x6049 (= S1_V1_!5249 S1_V1_!5270)) (or $x5067 (= S1_V1_!5255 S1_V1_!5264)) (or $x2932 (= S1_V1_!5270 S1_V1_!5255)) (or $x4577 (= S1_V1_!5270 S1_V1_!5264)) (or $x1194 (= S1_V3_!5250 S1_V3_!5256)) (or $x1039 (= S1_V3_!5250 S1_V3_!5265)) (or $x6049 (= S1_V3_!5250 S1_V3_!5271)) (or $x5067 (= S1_V3_!5256 S1_V3_!5265)) (or $x1021 (= S1_V3_!5256 S1_V3_!5271)) (or $x4147 (= S1_V3_!5265 S1_V3_!5271)) (or $x1039 (= S1_V2_!5251 S1_V2_!5266)) (or $x6049 (= S1_V2_!5251 S1_V2_!5272)) (or $x5753 (= S1_V2_!5257 S1_V2_!5251)) (or $x5067 (= S1_V2_!5257 S1_V2_!5266)) (or $x1021 (= S1_V2_!5257 S1_V2_!5272)) (or $x4147 (= S1_V2_!5266 S1_V2_!5272)) $x2726 $x1718 $x3221 (or $x5753 (= S1_V5_!5258 S1_V5_!5252)) (or $x5067 (= S1_V5_!5258 S1_V5_!5267)) (or (not $x4668) (= S1_V5_!5267 S1_V5_!5252)) (or $x2053 (= S1_V5_!5273 S1_V5_!5252)) (or $x2932 (= S1_V5_!5273 S1_V5_!5258)) (or $x4577 (= S1_V5_!5273 S1_V5_!5267)) (= E2_!5248 E2_!5247) (or (not (or (not R_E2_V1) $x2726)) (= E2_!5248 E2_!5262)) (or (not (or (not R_E2_V1) (= E1_!5261 E1_!5246))) (= E2_!5262 E2_!5247)) (or $x1194 (= S1_V4_!5253 S1_V4_!5259)) (or $x1039 (= S1_V4_!5253 S1_V4_!5268)) (or $x5067 (= S1_V4_!5259 S1_V4_!5268)) (or $x2053 (= S1_V4_!5274 S1_V4_!5253)) (or $x2932 (= S1_V4_!5274 S1_V4_!5259)) (or $x4577 $x3459) (or $x1039 (= S1_V6_!5254 S1_V6_!5269)) (or $x6049 (= S1_V6_!5254 S1_V6_!5275)) (or $x5753 (= S1_V6_!5260 S1_V6_!5254)) (or $x5067 $x43) (or $x1021 $x1662) (or $x4147 $x5317) (or (not MW_S1_V1) W_S1_V1) (or (not MW_S1_V3) W_S1_V3) (or (not MW_S1_V2) W_S1_V2) (or (not MW_S1_V4) W_S1_V4) (or (not MW_S1_V6) W_S1_V6))))
 (or (not $x30) (not $x2668) $x3186)))))))))))))))))))))))))))))))))))))))))))))))))))))))))
 )
 )
 )
 )
 )
 )
 )
 )
 )
 )
 )
 )
 )
 )
 )
 )
 )
 )
 )
 )
 )
 )
 )
 )
 )
 )
 )
 )
 )
 )
 )
 )
 )
 )
 )
 )
 )
 )
 )
 ))
 (let (($x2114 (and W_S1_V6 R_E1_V6)))
 (let (($x1105 (and W_S1_V4 R_E1_V4)))
 (let (($x1166 (and W_S1_V2 R_E1_V2)))
 (let (($x3211 (= DISJ_W_S1_R_E1 (not (or $x1166 R_E1_V5 $x1105 $x2114)))))
 (let (($x1877 (and W_S1_V6 R_S1_V6)))
 (let (($x1961 (and W_S1_V4 R_S1_V4)))
 (let (($x2312 (and W_S1_V2 R_S1_V2)))
 (let (($x4118 (and W_S1_V3 R_S1_V3)))
 (let (($x1809 (and W_S1_V1 R_S1_V1)))
 (let (($x3854 (= DISJ_W_S1_R_S1 (not (or $x1809 $x4118 $x2312 R_S1_V5 $x1961 $x1877)))))
 (let (($x2996 (and W_S1_V6 R_E2_V6)))
 (let (($x954 (and W_S1_V4 R_E2_V4)))
 (let (($x1392 (and W_S1_V2 R_E2_V2)))
 (let (($x2156 (and W_S1_V1 R_E2_V1)))
 (let (($x674 (= DISJ_W_S1_R_E2 (not (or $x2156 $x1392 R_E2_V5 $x954 $x2996)))))
 (let (($x1773 (not R_E1_V3)))
 (let (($x3682 (not R_E1_V1)))
 (let (($x5750 (not R_E2_V3)))
 (and (and $x5750 $x3682 $x1773 W_S1_V5 $x674 $x3854 $x3211 $x2635) $x1531 $x1188 $x167))))))))))))))))))))))))
(check-sat)
